Gurobi 12.0.3:   lim:time = 14400

  mip:bestbound = 1

Set parameter LogToConsole to value 1

  tech:outlev = 1

Set parameter Cuts to value 3

  cut:cuts = 3

Set parameter Presolve to value 2

  pre:solve = 2

Set parameter MIPFocus to value 2

  mip:focus = 2

Set parameter Symmetry to value 2

  mip:symmetry = 2

Set parameter InfUnbdInfo to value 1

Gurobi Optimizer version 12.0.3 build v12.0.3rc0 (win64 - Windows 10.0 (19045.2))



CPU model: Intel(R) Core(TM) i7-10700 CPU @ 2.90GHz, instruction set [SSE2|AVX|AVX2]

Thread count: 8 physical cores, 16 logical processors, using up to 16 threads



Non-default parameters:

TimeLimit  14400

MIPFocus  2

Symmetry  2

Cuts  3

InfUnbdInfo  1

Presolve  2



Optimize a model with 388 rows, 796 columns and 4455 nonzeros

Model fingerprint: 0x836b88ce

Model has 2 quadratic objective terms

Model has 6 quadratic constraints

Variable types: 37 continuous, 759 integer (0 binary)

Coefficient statistics:

  Matrix range     [1e+00, 1e+05]

  QMatrix range    [1e+00, 1e+00]

  QLMatrix range   [1e+00, 1e+01]

  Objective range  [6e+00, 1e+02]

  QObjective range [2e+00, 2e+00]

  Bounds range     [1e+00, 1e+02]

  RHS range        [1e+00, 1e+05]

  QRHS range       [1e+02, 1e+02]

Presolve removed 31 rows and 80 columns

Presolve time: 0.19s

Presolved: 840 rows, 1190 columns, 7067 nonzeros

Variable types: 113 continuous, 1077 integer (924 binary)

Root relaxation presolve removed 33 rows and 2 columns

Root relaxation presolved: 571 rows, 965 columns, 10482 nonzeros





Root relaxation: objective 5.898619e+01, 123 iterations, 0.02 seconds (0.01 work units)



    Nodes    |    Current Node    |     Objective Bounds      |     Work

 Expl Unexpl |  Obj  Depth IntInf | Incumbent    BestBd   Gap | It/Node Time



     0     0   58.98619    0   44          -   58.98619      -     -    0s

H    0     0                     431.1300000   58.98619  86.3%     -    0s

     0     0  160.36184    0   51  431.13000  160.36184  62.8%     -    0s

H    0     0                     387.1000000  160.36184  58.6%     -    0s

     0     0  160.38807    0   59  387.10000  160.38807  58.6%     -    0s

     0     0  160.38807    0   45  387.10000  160.38807  58.6%     -    0s

     0     0  160.38807    0   54  387.10000  160.38807  58.6%     -    0s

     0     0  163.06000    0   25  387.10000  163.06000  57.9%     -    0s

H    0     0                     366.5100000  163.21609  55.5%     -    0s

     0     0  163.82406    0   56  366.51000  163.82406  55.3%     -    0s

     0     0  164.13253    0   66  366.51000  164.13253  55.2%     -    0s

     0     0  169.39333    0   68  366.51000  169.39333  53.8%     -    1s

     0     0  169.39333    0   68  366.51000  169.39333  53.8%     -    1s

H    0     0                     345.2400000  169.39333  50.9%     -    1s

H    0     0                     337.6500000  169.44495  49.8%     -    1s

H    0     2                     323.2700000  169.44495  47.6%     -    1s

     0     2  169.44495    0   68  323.27000  169.44495  47.6%     -    1s

H  721   563                     322.2700000  191.12000  40.7%  15.3    1s

H  729   562                     319.6800000  191.12000  40.2%  15.3    1s

H 2113  1174                     305.1800000  199.19398  34.7%  14.1    2s

H 2119  1118                     303.6800000  199.19398  34.4%  14.0    2s

  5255  1556  199.19398   36   66  303.68000  199.19398  34.4%  18.1    5s

H12515  3511                     298.9900000  201.31000  32.7%  18.0    6s

H14976  4081                     298.8800000  204.66968  31.5%  18.1    6s

 27970  6367  248.62676   35   48  298.88000  218.99582  26.7%  18.8   10s

 43262  7085 infeasible   48       298.88000  233.26177  22.0%  19.1   15s

 55021  6920  290.10333   24   28  298.88000  243.81957  18.4%  18.9   20s

 64664  6543     cutoff   40       298.88000  250.65053  16.1%  18.7   25s

 77580  5271 infeasible   33       298.88000  260.69321  12.8%  18.4   30s

 92681  1866     cutoff   39       298.88000  275.56600  7.80%  17.9   35s



Cutting planes:

  Learned: 13

  Gomory: 39

  Lift-and-project: 47

  Cover: 84

  Implied bound: 95

  Projected implied bound: 17

  Clique: 40

  MIR: 49

  Mixing: 9

  StrongCG: 18

  Flow cover: 319

  GUB cover: 2

  Inf proof: 58

  Zero half: 296

  RLT: 40

  Relax-and-lift: 70



Explored 97921 nodes (1727898 simplex iterations) in 36.44 seconds (21.22 work units)

Thread count was 16 (of 16 available processors)



Solution count 10: 298.88 298.88 298.99 ... 345.24



Optimal solution found (tolerance 1.00e-04)

Best objective 2.988800000000e+02, best bound 2.988800000000e+02, gap 0.0000%



AMPL MP initial flat model has 796 variables (0 integer, 759 binary);

Objectives: 1 quadratic; 

Constraints:  388 linear; 6 quadratic;



AMPL MP final model has 796 variables (0 integer, 759 binary);

Objectives: 1 quadratic; 

Constraints:  388 linear; 6 quadratic;





-----RESULTS INFO-----
running_time:  36.484
TC.best_bound:  298.88
TC:  298.88
MIP Gap (%):  0
=== Vehicle Routes ===
Vehicle 1: 0 → 1
Vehicle 1: 1 → 2
Vehicle 1: 2 → 11
Vehicle 1: 11 → 18
Vehicle 2: 0 → 14
Vehicle 2: 14 → 16
Vehicle 2: 16 → 18
Vehicle 3: 0 → 18
Vehicle 4: 0 → 18

=== Full Vehicle Routes ===
Vehicle 1: 0 → 1 → 2 → 11 → 0 (48<100)
Vehicle 2: 0 → 14 → 16 → 0 (90<100)
Vehicle 3: 0 → 0 (0<100)
Vehicle 4: 0 → 0 (0<100)
Arc used by MRT line: y variables:
Customer assigment to PL: u variables:
3 16
4 14
5 11
6 16
7 16
8 11
9 14
10 16
Node is served by regular vehicle: g variables:
1
2
11
14
16
Customer assigment to Home delivery: gm variables:
1
2
Node total demands: ntd variables:
1 13 1
2 12 1
7 0 0
8 0 0
9 0 0
10 0 0
17 0 0
11 23 1
12 0 0
13 0 0
14 36 1
15 0 0
16 54 1
Customer's demand delivered to PL: l variables:
3
4
5
6
7
8
9
10
Lockers load <= capacity:
0 <= 79
23 <= 70
0 <= 82
0 <= 88
36 <= 75
0 <= 94
54 <= 95
